\ENCODING=ISO-8859-1
\Problem name: ilog.cplex

Minimize
 obj1: 96810 x1 + 98761 x2 + 106716 x3 + 97260 x4 + 96738 x5 + 103924 x6
       + 102571 x7 + 108088 x8 + 98040 x9 + 106470 x10 + 107651 x11 + 99389 x12
       + 106749 x13 + 96646 x14 + 94908 x15 + 103172 x16 + 95484 x17
       + 97458 x18 + 97111 x19 + 90385 x20 + 99064 x21 + 90528 x22 + 100080 x23
       + 109646 x24 + 92827 x25 + 101740 x26 + 97506 x27 + 106685 x28
       + 107192 x29 + 98564 x30 + 103795 x31 + 105890 x32 + 101719 x33
       + 100125 x34 + 101405 x35 + 107417 x36 + 97266 x37 + 100989 x38
       + 94806 x39 + 105978 x40 + 105775 x41 + 100110 x42 + 94422 x43
       + 90725 x44 + 103837 x45 + 107495 x46 + 100861 x47 + 99604 x48
       + 108349 x49 + 92883 x50 + 102213 x51 + 96053 x52 + 90442 x53
       + 103102 x54 + 95368 x55 + 91135 x56 + 107310 x57 + 107754 x58
       + 96059 x59 + 109985 x60 + 97867 x61 + 105019 x62 + 105353 x63
       + 96469 x64 + 98202 x65 + 90198 x66 + 94625 x67 + 107411 x68 + 92585 x69
       + 106693 x70 + 95910 x71 + 99271 x72 + 91145 x73 + 96228 x74 + 92546 x75
       + 104321 x76 + 100473 x77 + 105379 x78 + 93958 x79 + 93636 x80
       + 95957 x81 + 103793 x82 + 92064 x83 + 98090 x84 + 105480 x85
       + 96740 x86 + 105778 x87 + 106485 x88 + 92284 x89 + 95886 x90
       + 108274 x91 + 92569 x92 + 106202 x93 + 91835 x94 + 90922 x95
       + 92745 x96 + 94514 x97 + 97353 x98 + 107672 x99 + 101875 x100
       + 106372 x101 + 101127 x102 + 104131 x103 + 95894 x104 + 108027 x105
       + 108512 x106 + 106714 x107 + 106819 x108 + 90019 x109 + 107894 x110
       + 108985 x111 + 108256 x112 + 92044 x113 + 109170 x114 + 104640 x115
       + 97681 x116 + 96393 x117 + 94266 x118 + 99618 x119 + 105493 x120
       + 100285 x121 + 94723 x122 + 108080 x123 + 91808 x124 + 94754 x125
       + 106523 x126 + 103077 x127 + 100498 x128 + 107335 x129 + 103882 x130
       + 103761 x131 + 109786 x132 + 100930 x133 + 109101 x134 + 104028 x135
       + 97602 x136 + 101950 x137 + 107054 x138 + 95430 x139 + 100090 x140
       + 100467 x141 + 109509 x142 + 91898 x143 + 108718 x144 + 105367 x145
       + 96462 x146 + 105444 x147 + 108784 x148 + 97195 x149 + 100076 x150
       + 107044 x151 + 96787 x152 + 105762 x153 + 108248 x154 + 96568 x155
       + 103382 x156 + 99619 x157 + 96876 x158 + 100983 x159 + 108516 x160
       + 90126 x161 + 92577 x162 + 100987 x163 + 105791 x164 + 104133 x165
       + 100907 x166 + 92842 x167 + 94270 x168 + 106175 x169 + 109048 x170
       + 104356 x171 + 107613 x172 + 93604 x173 + 106500 x174 + 101813 x175
       + 92864 x176 + 106227 x177 + 102480 x178 + 108094 x179 + 104132 x180
       + 100076 x181 + 90006 x182 + 99167 x183 + 98126 x184 + 108306 x185
       + 90995 x186 + 92901 x187 + 105689 x188 + 104702 x189 + 108329 x190
       + 108668 x191 + 93270 x192 + 91105 x193 + 103554 x194 + 92252 x195
       + 104744 x196 + 101003 x197 + 94624 x198 + 101207 x199 + 91486 x200
       + 99510 x201 + 96374 x202 + 108830 x203 + 107498 x204 + 91348 x205
       + 96236 x206 + 95780 x207 + 97169 x208 + 108510 x209 + 93211 x210
       + 92749 x211 + 100175 x212 + 97891 x213 + 102469 x214 + 99024 x215
       + 97709 x216 + 108425 x217 + 97995 x218 + 103819 x219 + 109555 x220
       + 107120 x221 + 91327 x222 + 99943 x223 + 102515 x224 + 93877 x225
       + 105711 x226 + 102663 x227 + 107232 x228 + 96086 x229 + 101894 x230
       + 90557 x231 + 102695 x232 + 105740 x233 + 104275 x234 + 109678 x235
       + 95525 x236 + 94156 x237 + 104318 x238 + 107567 x239 + 94612 x240
       + 100732 x241 + 99115 x242 + 104343 x243 + 95098 x244 + 95513 x245
       + 101662 x246 + 99111 x247 + 102946 x248 + 104424 x249 + 91437 x250
       + 104349 x251 + 93604 x252 + 104423 x253 + 99587 x254 + 90769 x255
       + 95852 x256 + 108500 x257 + 95565 x258 + 107849 x259 + 105025 x260
       + 106527 x261 + 97663 x262 + 106027 x263 + 94300 x264 + 94692 x265
       + 102016 x266 + 99398 x267 + 109249 x268 + 104227 x269 + 94574 x270
       + 102210 x271 + 106909 x272 + 104229 x273 + 109155 x274 + 96866 x275
       + 91984 x276 + 103087 x277 + 103915 x278 + 91147 x279 + 94905 x280
       + 108356 x281 + 108445 x282 + 98027 x283 + 109100 x284 + 105861 x285
       + 104195 x286 + 102712 x287 + 98164 x288 + 105428 x289 + 102024 x290
       + 108424 x291 + 97523 x292 + 92814 x293 + 92437 x294 + 94996 x295
       + 109734 x296 + 105259 x297 + 106413 x298 + 102452 x299 - 107164 x300
       + 18643 x301 + 21413 x302 + 19873 x303 + 19181 x304 + 18158 x305
       + 18833 x306 + 19821 x307 + 18476 x308 + 19428 x309 + 18374 x310
       + 21960 x311 + 21580 x312 + 19679 x313 + 18993 x314 + 20916 x315
       + 21854 x316 + 21321 x317 + 20756 x318 + 21144 x319 + 20060 x320
       + 21734 x321 + 21655 x322 + 19697 x323 + 19129 x324 + 20327 x325
       + 20624 x326 + 19429 x327 + 20952 x328 + 18163 x329 + 21563 x330
       + 20781 x331 + 21856 x332 + 21261 x333 + 18224 x334 + 20840 x335
       + 19679 x336 + 20938 x337 + 20277 x338 + 21286 x339 + 18988 x340
       + 21133 x341 + 20666 x342 + 20095 x343 + 19986 x344 + 21620 x345
       + 19590 x346 + 19556 x347 + 21032 x348 + 19405 x349 + 18968 x350
       + 21178 x351 + 18462 x352 + 18268 x353 + 19225 x354 + 20485 x355
       + 18509 x356 + 18551 x357 + 19536 x358 + 21465 x359 + 14404 x360
Subject To
 c1:   x5 - x18 - x21 + x26 + x34 + x39 - x40 + x48 - x55 - x56 + x57  = 0
 c2:   x65 - x78 - x81 + x86 + x94 + x99 - x100 + x108 - x115 - x116 + x117
        = 0
 c3:   x125 - x138 - x141 + x146 + x154 + x159 - x160 + x168 - x175 - x176
       + x177  = 0
 c4:   x185 - x198 - x201 + x206 + x214 + x219 - x220 + x228 - x235 - x236
       + x237  = 0
 c5:   x245 - x258 - x261 + x266 + x274 + x279 - x280 + x288 - x295 - x296
       + x297  = 0
 c6:   x3 - x26 - x41 + x45 - x49 + x51 + x55  = 0
 c7:   x63 - x86 - x101 + x105 - x109 + x111 + x115  = -1
 c8:   x123 - x146 - x161 + x165 - x169 + x171 + x175  = 0
 c9:   x183 - x206 - x221 + x225 - x229 + x231 + x235  = 0
 c10:  x243 - x266 - x281 + x285 - x289 + x291 + x295  = 0
 c11:  - x8 + x23 - x32 + x35 + x41 + x42 - x45 - x59  = 0
 c12:  - x68 + x83 - x92 + x95 + x101 + x102 - x105 - x119  = 0
 c13:  - x128 + x143 - x152 + x155 + x161 + x162 - x165 - x179  = 0
 c14:  - x188 + x203 - x212 + x215 + x221 + x222 - x225 - x239  = 0
 c15:  - x248 + x263 - x272 + x275 + x281 + x282 - x285 - x299  = 0
 c16:  x9 - x23 + x28 + x29 + x33 - x39 - x51 + x56 + x59 + x60  = 0
 c17:  x69 - x83 + x88 + x89 + x93 - x99 - x111 + x116 + x119 + x120  = 0
 c18:  x129 - x143 + x148 + x149 + x153 - x159 - x171 + x176 + x179 + x180  = 0
 c19:  x189 - x203 + x208 + x209 + x213 - x219 - x231 + x236 + x239 + x240  = 1
 c20:  x249 - x263 + x268 + x269 + x273 - x279 - x291 + x296 + x299 + x300  = 0
 c21:  - x7 - x10 - x13 + x16 + x20 + x22 - x27 - x29 + x37 - x48 + x49 + x50
       + x58  = 0
 c22:  - x67 - x70 - x73 + x76 + x80 + x82 - x87 - x89 + x97 - x108 + x109
       + x110 + x118  = 1
 c23:  - x127 - x130 - x133 + x136 + x140 + x142 - x147 - x149 + x157 - x168
       + x169 + x170 + x178  = 0
 c24:  - x187 - x190 - x193 + x196 + x200 + x202 - x207 - x209 + x217 - x228
       + x229 + x230 + x238  = 0
 c25:  - x247 - x250 - x253 + x256 + x260 + x262 - x267 - x269 + x277 - x288
       + x289 + x290 + x298  = 0
 c26:  x2 - x15 - x17 - x22 + x27 - x42 - x53 + x54  = 0
 c27:  x62 - x75 - x77 - x82 + x87 - x102 - x113 + x114  = 0
 c28:  x122 - x135 - x137 - x142 + x147 - x162 - x173 + x174  = 0
 c29:  x182 - x195 - x197 - x202 + x207 - x222 - x233 + x234  = 0
 c30:  x242 - x255 - x257 - x262 + x267 - x282 - x293 + x294  = 0
 c31:  - x9 + x11 - x12 - x19 - x30 + x40 - x43 - x54  = 0
 c32:  - x69 + x71 - x72 - x79 - x90 + x100 - x103 - x114  = 0
 c33:  - x129 + x131 - x132 - x139 - x150 + x160 - x163 - x174  = 1
 c34:  - x189 + x191 - x192 - x199 - x210 + x220 - x223 - x234  = 0
 c35:  - x249 + x251 - x252 - x259 - x270 + x280 - x283 - x294  = 0
 c36:  - x5 + x8 - x33 - x44  = 0
 c37:  - x65 + x68 - x93 - x104  = 0
 c38:  - x125 + x128 - x153 - x164  = 0
 c39:  - x185 + x188 - x213 - x224  = 0
 c40:  - x245 + x248 - x273 - x284  = 0
 c41:  - x3 + x6 + x7 + x14 + x17 - x25 + x32 - x46  = 0
 c42:  - x63 + x66 + x67 + x74 + x77 - x85 + x92 - x106  = 0
 c43:  - x123 + x126 + x127 + x134 + x137 - x145 + x152 - x166  = 0
 c44:  - x183 + x186 + x187 + x194 + x197 - x205 + x212 - x226  = -1
 c45:  - x243 + x246 + x247 + x254 + x257 - x265 + x272 - x286  = 1
 c46:  x4 + x10 + x15 + x21 - x24 - x38 + x43 - x57 - x60  = 1
 c47:  x64 + x70 + x75 + x81 - x84 - x98 + x103 - x117 - x120  = 0
 c48:  x124 + x130 + x135 + x141 - x144 - x158 + x163 - x177 - x180  = 0
 c49:  x184 + x190 + x195 + x201 - x204 - x218 + x223 - x237 - x240  = 0
 c50:  x244 + x250 + x255 + x261 - x264 - x278 + x283 - x297 - x300  = 0
 c51:  - x4 + x19 + x24 + x44 - x52 - x58  = 0
 c52:  - x64 + x79 + x84 + x104 - x112 - x118  = 0
 c53:  - x124 + x139 + x144 + x164 - x172 - x178  = 0
 c54:  - x184 + x199 + x204 + x224 - x232 - x238  = 0
 c55:  - x244 + x259 + x264 + x284 - x292 - x298  = 0
 c56:  - x1 - x14 - x16 - x34 - x35 - x36 + x47 + x52 + x53  = -1
 c57:  - x61 - x74 - x76 - x94 - x95 - x96 + x107 + x112 + x113  = 0
 c58:  - x121 - x134 - x136 - x154 - x155 - x156 + x167 + x172 + x173  = 0
 c59:  - x181 - x194 - x196 - x214 - x215 - x216 + x227 + x232 + x233  = 0
 c60:  - x241 - x254 - x256 - x274 - x275 - x276 + x287 + x292 + x293  = 0
 c61:  x1 - x6 + x12 + x31 + x46 - x47 - x50  = 0
 c62:  x61 - x66 + x72 + x91 + x106 - x107 - x110  = 0
 c63:  x121 - x126 + x132 + x151 + x166 - x167 - x170  = 0
 c64:  x181 - x186 + x192 + x211 + x226 - x227 - x230  = 0
 c65:  x241 - x246 + x252 + x271 + x286 - x287 - x290  = 0
 c66:  - x2 + x13 + x18 + x36 - x37  = 0
 c67:  - x62 + x73 + x78 + x96 - x97  = 0
 c68:  - x122 + x133 + x138 + x156 - x157  = 0
 c69:  - x182 + x193 + x198 + x216 - x217  = 0
 c70:  - x242 + x253 + x258 + x276 - x277  = 0
 c71:  - x11 - x20 + x25 - x28 + x30 - x31 + x38  = 0
 c72:  - x71 - x80 + x85 - x88 + x90 - x91 + x98  = 0
 c73:  - x131 - x140 + x145 - x148 + x150 - x151 + x158  = -1
 c74:  - x191 - x200 + x205 - x208 + x210 - x211 + x218  = 0
 c75:  - x251 - x260 + x265 - x268 + x270 - x271 + x278  = -1
 c76:  4 x1 + 4 x61 + 4 x121 + 4 x181 + 4 x241 - 2 x301 <= 0
 c77:  4 x2 + 4 x62 + 4 x122 + 4 x182 + 4 x242 - 2 x302 <= 0
 c78:  4 x3 + 4 x63 + 4 x123 + 4 x183 + 4 x243 - 2 x303 <= 0
 c79:  4 x4 + 4 x64 + 4 x124 + 4 x184 + 4 x244 - 2 x304 <= 0
 c80:  4 x5 + 4 x65 + 4 x125 + 4 x185 + 4 x245 - 2 x305 <= 0
 c81:  4 x6 + 4 x66 + 4 x126 + 4 x186 + 4 x246 - 2 x306 <= 0
 c82:  4 x7 + 4 x67 + 4 x127 + 4 x187 + 4 x247 - 2 x307 <= 0
 c83:  4 x8 + 4 x68 + 4 x128 + 4 x188 + 4 x248 - 2 x308 <= 0
 c84:  4 x9 + 4 x69 + 4 x129 + 4 x189 + 4 x249 - 2 x309 <= 0
 c85:  4 x10 + 4 x70 + 4 x130 + 4 x190 + 4 x250 - 2 x310 <= 0
 c86:  4 x11 + 4 x71 + 4 x131 + 4 x191 + 4 x251 - 2 x311 <= 0
 c87:  4 x12 + 4 x72 + 4 x132 + 4 x192 + 4 x252 - 2 x312 <= 0
 c88:  4 x13 + 4 x73 + 4 x133 + 4 x193 + 4 x253 - 2 x313 <= 0
 c89:  4 x14 + 4 x74 + 4 x134 + 4 x194 + 4 x254 - 2 x314 <= 0
 c90:  4 x15 + 4 x75 + 4 x135 + 4 x195 + 4 x255 - 2 x315 <= 0
 c91:  4 x16 + 4 x76 + 4 x136 + 4 x196 + 4 x256 - 2 x316 <= 0
 c92:  4 x17 + 4 x77 + 4 x137 + 4 x197 + 4 x257 - 2 x317 <= 0
 c93:  4 x18 + 4 x78 + 4 x138 + 4 x198 + 4 x258 - 2 x318 <= 0
 c94:  4 x19 + 4 x79 + 4 x139 + 4 x199 + 4 x259 - 2 x319 <= 0
 c95:  4 x20 + 4 x80 + 4 x140 + 4 x200 + 4 x260 - 2 x320 <= 0
 c96:  4 x21 + 4 x81 + 4 x141 + 4 x201 + 4 x261 - 2 x321 <= 0
 c97:  4 x22 + 4 x82 + 4 x142 + 4 x202 + 4 x262 - 2 x322 <= 0
 c98:  4 x23 + 4 x83 + 4 x143 + 4 x203 + 4 x263 - 2 x323 <= 0
 c99:  4 x24 + 4 x84 + 4 x144 + 4 x204 + 4 x264 - 2 x324 <= 0
 c100: 4 x25 + 4 x85 + 4 x145 + 4 x205 + 4 x265 - 2 x325 <= 0
 c101: 4 x26 + 4 x86 + 4 x146 + 4 x206 + 4 x266 - 2 x326 <= 0
 c102: 4 x27 + 4 x87 + 4 x147 + 4 x207 + 4 x267 - 2 x327 <= 0
 c103: 4 x28 + 4 x88 + 4 x148 + 4 x208 + 4 x268 - 2 x328 <= 0
 c104: 4 x29 + 4 x89 + 4 x149 + 4 x209 + 4 x269 - 2 x329 <= 0
 c105: 4 x30 + 4 x90 + 4 x150 + 4 x210 + 4 x270 - 2 x330 <= 0
 c106: 4 x31 + 4 x91 + 4 x151 + 4 x211 + 4 x271 - 2 x331 <= 0
 c107: 4 x32 + 4 x92 + 4 x152 + 4 x212 + 4 x272 - 2 x332 <= 0
 c108: 4 x33 + 4 x93 + 4 x153 + 4 x213 + 4 x273 - 2 x333 <= 0
 c109: 4 x34 + 4 x94 + 4 x154 + 4 x214 + 4 x274 - 2 x334 <= 0
 c110: 4 x35 + 4 x95 + 4 x155 + 4 x215 + 4 x275 - 2 x335 <= 0
 c111: 4 x36 + 4 x96 + 4 x156 + 4 x216 + 4 x276 - 2 x336 <= 0
 c112: 4 x37 + 4 x97 + 4 x157 + 4 x217 + 4 x277 - 2 x337 <= 0
 c113: 4 x38 + 4 x98 + 4 x158 + 4 x218 + 4 x278 - 2 x338 <= 0
 c114: 4 x39 + 4 x99 + 4 x159 + 4 x219 + 4 x279 - 2 x339 <= 0
 c115: 4 x40 + 4 x100 + 4 x160 + 4 x220 + 4 x280 - 2 x340 <= 0
 c116: 4 x41 + 4 x101 + 4 x161 + 4 x221 + 4 x281 - 2 x341 <= 0
 c117: 4 x42 + 4 x102 + 4 x162 + 4 x222 + 4 x282 - 2 x342 <= 0
 c118: 4 x43 + 4 x103 + 4 x163 + 4 x223 + 4 x283 - 2 x343 <= 0
 c119: 4 x44 + 4 x104 + 4 x164 + 4 x224 + 4 x284 - 2 x344 <= 0
 c120: 4 x45 + 4 x105 + 4 x165 + 4 x225 + 4 x285 - 2 x345 <= 0
 c121: 4 x46 + 4 x106 + 4 x166 + 4 x226 + 4 x286 - 2 x346 <= 0
 c122: 4 x47 + 4 x107 + 4 x167 + 4 x227 + 4 x287 - 2 x347 <= 0
 c123: 4 x48 + 4 x108 + 4 x168 + 4 x228 + 4 x288 - 2 x348 <= 0
 c124: 4 x49 + 4 x109 + 4 x169 + 4 x229 + 4 x289 - 2 x349 <= 0
 c125: 4 x50 + 4 x110 + 4 x170 + 4 x230 + 4 x290 - 2 x350 <= 0
 c126: 4 x51 + 4 x111 + 4 x171 + 4 x231 + 4 x291 - 2 x351 <= 0
 c127: 4 x52 + 4 x112 + 4 x172 + 4 x232 + 4 x292 - 2 x352 <= 0
 c128: 4 x53 + 4 x113 + 4 x173 + 4 x233 + 4 x293 - 2 x353 <= 0
 c129: 4 x54 + 4 x114 + 4 x174 + 4 x234 + 4 x294 - 2 x354 <= 0
 c130: 4 x55 + 4 x115 + 4 x175 + 4 x235 + 4 x295 - 2 x355 <= 0
 c131: 4 x56 + 4 x116 + 4 x176 + 4 x236 + 4 x296 - 2 x356 <= 0
 c132: 4 x57 + 4 x117 + 4 x177 + 4 x237 + 4 x297 - 2 x357 <= 0
 c133: 4 x58 + 4 x118 + 4 x178 + 4 x238 + 4 x298 - 2 x358 <= 0
 c134: 4 x59 + 4 x119 + 4 x179 + 4 x239 + 4 x299 - 2 x359 <= 0
 c135: 4 x60 + 4 x120 + 4 x180 + 4 x240 + 4 x300 - 2 x360 <= 0
Bounds
 0 <= x1 <= 1
 0 <= x2 <= 1
 0 <= x3 <= 1
 0 <= x4 <= 1
 0 <= x5 <= 1
 0 <= x6 <= 1
 0 <= x7 <= 1
 0 <= x8 <= 1
 0 <= x9 <= 1
 0 <= x10 <= 1
 0 <= x11 <= 1
 0 <= x12 <= 1
 0 <= x13 <= 1
 0 <= x14 <= 1
 0 <= x15 <= 1
 0 <= x16 <= 1
 0 <= x17 <= 1
 0 <= x18 <= 1
 0 <= x19 <= 1
 0 <= x20 <= 1
 0 <= x21 <= 1
 0 <= x22 <= 1
 0 <= x23 <= 1
 0 <= x24 <= 1
 0 <= x25 <= 1
 0 <= x26 <= 1
 0 <= x27 <= 1
 0 <= x28 <= 1
 0 <= x29 <= 1
 0 <= x30 <= 1
 0 <= x31 <= 1
 0 <= x32 <= 1
 0 <= x33 <= 1
 0 <= x34 <= 1
 0 <= x35 <= 1
 0 <= x36 <= 1
 0 <= x37 <= 1
 0 <= x38 <= 1
 0 <= x39 <= 1
 0 <= x40 <= 1
 0 <= x41 <= 1
 0 <= x42 <= 1
 0 <= x43 <= 1
 0 <= x44 <= 1
 0 <= x45 <= 1
 0 <= x46 <= 1
 0 <= x47 <= 1
 0 <= x48 <= 1
 0 <= x49 <= 1
 0 <= x50 <= 1
 0 <= x51 <= 1
 0 <= x52 <= 1
 0 <= x53 <= 1
 0 <= x54 <= 1
 0 <= x55 <= 1
 0 <= x56 <= 1
 0 <= x57 <= 1
 0 <= x58 <= 1
 0 <= x59 <= 1
 0 <= x60 <= 1
 0 <= x61 <= 1
 0 <= x62 <= 1
 0 <= x63 <= 1
 0 <= x64 <= 1
 0 <= x65 <= 1
 0 <= x66 <= 1
 0 <= x67 <= 1
 0 <= x68 <= 1
 0 <= x69 <= 1
 0 <= x70 <= 1
 0 <= x71 <= 1
 0 <= x72 <= 1
 0 <= x73 <= 1
 0 <= x74 <= 1
 0 <= x75 <= 1
 0 <= x76 <= 1
 0 <= x77 <= 1
 0 <= x78 <= 1
 0 <= x79 <= 1
 0 <= x80 <= 1
 0 <= x81 <= 1
 0 <= x82 <= 1
 0 <= x83 <= 1
 0 <= x84 <= 1
 0 <= x85 <= 1
 0 <= x86 <= 1
 0 <= x87 <= 1
 0 <= x88 <= 1
 0 <= x89 <= 1
 0 <= x90 <= 1
 0 <= x91 <= 1
 0 <= x92 <= 1
 0 <= x93 <= 1
 0 <= x94 <= 1
 0 <= x95 <= 1
 0 <= x96 <= 1
 0 <= x97 <= 1
 0 <= x98 <= 1
 0 <= x99 <= 1
 0 <= x100 <= 1
 0 <= x101 <= 1
 0 <= x102 <= 1
 0 <= x103 <= 1
 0 <= x104 <= 1
 0 <= x105 <= 1
 0 <= x106 <= 1
 0 <= x107 <= 1
 0 <= x108 <= 1
 0 <= x109 <= 1
 0 <= x110 <= 1
 0 <= x111 <= 1
 0 <= x112 <= 1
 0 <= x113 <= 1
 0 <= x114 <= 1
 0 <= x115 <= 1
 0 <= x116 <= 1
 0 <= x117 <= 1
 0 <= x118 <= 1
 0 <= x119 <= 1
 0 <= x120 <= 1
 0 <= x121 <= 1
 0 <= x122 <= 1
 0 <= x123 <= 1
 0 <= x124 <= 1
 0 <= x125 <= 1
 0 <= x126 <= 1
 0 <= x127 <= 1
 0 <= x128 <= 1
 0 <= x129 <= 1
 0 <= x130 <= 1
 0 <= x131 <= 1
 0 <= x132 <= 1
 0 <= x133 <= 1
 0 <= x134 <= 1
 0 <= x135 <= 1
 0 <= x136 <= 1
 0 <= x137 <= 1
 0 <= x138 <= 1
 0 <= x139 <= 1
 0 <= x140 <= 1
 0 <= x141 <= 1
 0 <= x142 <= 1
 0 <= x143 <= 1
 0 <= x144 <= 1
 0 <= x145 <= 1
 0 <= x146 <= 1
 0 <= x147 <= 1
 0 <= x148 <= 1
 0 <= x149 <= 1
 0 <= x150 <= 1
 0 <= x151 <= 1
 0 <= x152 <= 1
 0 <= x153 <= 1
 0 <= x154 <= 1
 0 <= x155 <= 1
 0 <= x156 <= 1
 0 <= x157 <= 1
 0 <= x158 <= 1
 0 <= x159 <= 1
 0 <= x160 <= 1
 0 <= x161 <= 1
 0 <= x162 <= 1
 0 <= x163 <= 1
 0 <= x164 <= 1
 0 <= x165 <= 1
 0 <= x166 <= 1
 0 <= x167 <= 1
 0 <= x168 <= 1
 0 <= x169 <= 1
 0 <= x170 <= 1
 0 <= x171 <= 1
 0 <= x172 <= 1
 0 <= x173 <= 1
 0 <= x174 <= 1
 0 <= x175 <= 1
 0 <= x176 <= 1
 0 <= x177 <= 1
 0 <= x178 <= 1
 0 <= x179 <= 1
 0 <= x180 <= 1
 0 <= x181 <= 1
 0 <= x182 <= 1
 0 <= x183 <= 1
 0 <= x184 <= 1
 0 <= x185 <= 1
 0 <= x186 <= 1
 0 <= x187 <= 1
 0 <= x188 <= 1
 0 <= x189 <= 1
 0 <= x190 <= 1
 0 <= x191 <= 1
 0 <= x192 <= 1
 0 <= x193 <= 1
 0 <= x194 <= 1
 0 <= x195 <= 1
 0 <= x196 <= 1
 0 <= x197 <= 1
 0 <= x198 <= 1
 0 <= x199 <= 1
 0 <= x200 <= 1
 0 <= x201 <= 1
 0 <= x202 <= 1
 0 <= x203 <= 1
 0 <= x204 <= 1
 0 <= x205 <= 1
 0 <= x206 <= 1
 0 <= x207 <= 1
 0 <= x208 <= 1
 0 <= x209 <= 1
 0 <= x210 <= 1
 0 <= x211 <= 1
 0 <= x212 <= 1
 0 <= x213 <= 1
 0 <= x214 <= 1
 0 <= x215 <= 1
 0 <= x216 <= 1
 0 <= x217 <= 1
 0 <= x218 <= 1
 0 <= x219 <= 1
 0 <= x220 <= 1
 0 <= x221 <= 1
 0 <= x222 <= 1
 0 <= x223 <= 1
 0 <= x224 <= 1
 0 <= x225 <= 1
 0 <= x226 <= 1
 0 <= x227 <= 1
 0 <= x228 <= 1
 0 <= x229 <= 1
 0 <= x230 <= 1
 0 <= x231 <= 1
 0 <= x232 <= 1
 0 <= x233 <= 1
 0 <= x234 <= 1
 0 <= x235 <= 1
 0 <= x236 <= 1
 0 <= x237 <= 1
 0 <= x238 <= 1
 0 <= x239 <= 1
 0 <= x240 <= 1
 0 <= x241 <= 1
 0 <= x242 <= 1
 0 <= x243 <= 1
 0 <= x244 <= 1
 0 <= x245 <= 1
 0 <= x246 <= 1
 0 <= x247 <= 1
 0 <= x248 <= 1
 0 <= x249 <= 1
 0 <= x250 <= 1
 0 <= x251 <= 1
 0 <= x252 <= 1
 0 <= x253 <= 1
 0 <= x254 <= 1
 0 <= x255 <= 1
 0 <= x256 <= 1
 0 <= x257 <= 1
 0 <= x258 <= 1
 0 <= x259 <= 1
 0 <= x260 <= 1
 0 <= x261 <= 1
 0 <= x262 <= 1
 0 <= x263 <= 1
 0 <= x264 <= 1
 0 <= x265 <= 1
 0 <= x266 <= 1
 0 <= x267 <= 1
 0 <= x268 <= 1
 0 <= x269 <= 1
 0 <= x270 <= 1
 0 <= x271 <= 1
 0 <= x272 <= 1
 0 <= x273 <= 1
 0 <= x274 <= 1
 0 <= x275 <= 1
 0 <= x276 <= 1
 0 <= x277 <= 1
 0 <= x278 <= 1
 0 <= x279 <= 1
 0 <= x280 <= 1
 0 <= x281 <= 1
 0 <= x282 <= 1
 0 <= x283 <= 1
 0 <= x284 <= 1
 0 <= x285 <= 1
 0 <= x286 <= 1
 0 <= x287 <= 1
 0 <= x288 <= 1
 0 <= x289 <= 1
 0 <= x290 <= 1
 0 <= x291 <= 1
 0 <= x292 <= 1
 0 <= x293 <= 1
 0 <= x294 <= 1
 0 <= x295 <= 1
 0 <= x296 <= 1
 0 <= x297 <= 1
 0 <= x298 <= 1
 0 <= x299 <= 1
 0 <= x300 <= 1
 0 <= x301 <= 1
 0 <= x302 <= 1
 0 <= x303 <= 1
 0 <= x304 <= 1
 0 <= x305 <= 1
 0 <= x306 <= 1
 0 <= x307 <= 1
 0 <= x308 <= 1
 0 <= x309 <= 1
 0 <= x310 <= 1
 0 <= x311 <= 1
 0 <= x312 <= 1
 0 <= x313 <= 1
 0 <= x314 <= 1
 0 <= x315 <= 1
 0 <= x316 <= 1
 0 <= x317 <= 1
 0 <= x318 <= 1
 0 <= x319 <= 1
 0 <= x320 <= 1
 0 <= x321 <= 1
 0 <= x322 <= 1
 0 <= x323 <= 1
 0 <= x324 <= 1
 0 <= x325 <= 1
 0 <= x326 <= 1
 0 <= x327 <= 1
 0 <= x328 <= 1
 0 <= x329 <= 1
 0 <= x330 <= 1
 0 <= x331 <= 1
 0 <= x332 <= 1
 0 <= x333 <= 1
 0 <= x334 <= 1
 0 <= x335 <= 1
 0 <= x336 <= 1
 0 <= x337 <= 1
 0 <= x338 <= 1
 0 <= x339 <= 1
 0 <= x340 <= 1
 0 <= x341 <= 1
 0 <= x342 <= 1
 0 <= x343 <= 1
 0 <= x344 <= 1
 0 <= x345 <= 1
 0 <= x346 <= 1
 0 <= x347 <= 1
 0 <= x348 <= 1
 0 <= x349 <= 1
 0 <= x350 <= 1
 0 <= x351 <= 1
 0 <= x352 <= 1
 0 <= x353 <= 1
 0 <= x354 <= 1
 0 <= x355 <= 1
 0 <= x356 <= 1
 0 <= x357 <= 1
 0 <= x358 <= 1
 0 <= x359 <= 1
 0 <= x360 <= 1
Binaries
 x301  x302  x303  x304  x305  x306  x307  x308  x309  x310  x311  x312  x313 
 x314  x315  x316  x317  x318  x319  x320  x321  x322  x323  x324  x325  x326 
 x327  x328  x329  x330  x331  x332  x333  x334  x335  x336  x337  x338  x339 
 x340  x341  x342  x343  x344  x345  x346  x347  x348  x349  x350  x351  x352 
 x353  x354  x355  x356  x357  x358  x359  x360 
End
